0 52 7 62 19 47 36 49 11 63 90 32 10 70 30 20 66 71 35 34 33 50 1 69 27 0
0 53 58 40 2 57 15 41 22 74 75 23 39 25 55 4 54 24 68 3 77 76 28 0
0 89 60 83 8 45 84 5 61 16 44 38 14 42 100 37 98 85 93 99 96 6 94 13 0
